(set-logic HORN)
(set-info :source |
  Benchmark: test_safe_2019/esop2017/risers.ml
  Generated by MoCHi
|)
(set-info :status unknown)
(declare-fun |fail_97[824:0]| ( Int) Bool)
(declare-fun |risers[561:2][817:0]| ( Int  Int) Bool)
(declare-fun |risers[711:2][744:1][760:1][779:0]| ( Int  Int  Int  Int) Bool)
(declare-fun |risers[711:2][744:1][760:0]| ( Int  Int  Int) Bool)
(declare-fun |risers[711:2][744:0]| ( Int  Int) Bool)
(declare-fun |risers[711:1][719:1][730:0]| ( Int  Int  Int) Bool)
(declare-fun |risers[711:1][719:0]| ( Int  Int) Bool)
(declare-fun |risers[711:0]| ( Int) Bool)
(declare-fun |risers[561:1][685:1][696:0]| ( Int  Int  Int) Bool)
(declare-fun |risers[561:1][685:0]| ( Int  Int) Bool)
(declare-fun |risers[561:1][574:1][671:0]| ( Int  Int  Int) Bool)
(declare-fun |risers[415:1][597:1][649:0]| ( Int  Int  Int) Bool)
(declare-fun |make_list[380:1][411:1][601:1][645:0]| ( Int  Int  Int  Int) Bool)
(declare-fun |make_list[383:1][400:1][616:1][631:0]| ( Int  Int  Int  Int) Bool)
(declare-fun |make_list[383:1][400:1][616:0]| ( Int  Int  Int) Bool)
(declare-fun |make_list[380:1][411:1][601:0]| ( Int  Int  Int) Bool)
(declare-fun |risers[415:1][597:0]| ( Int  Int) Bool)
(declare-fun |risers[561:1][574:0]| ( Int  Int) Bool)
(declare-fun |risers[561:0]| ( Int) Bool)
(declare-fun |risers[415:1][494:1][546:0]| ( Int  Int  Int) Bool)
(declare-fun |make_list[380:1][411:1][498:1][542:0]| ( Int  Int  Int  Int) Bool)
(declare-fun |make_list[383:1][400:1][513:1][528:0]| ( Int  Int  Int  Int) Bool)
(declare-fun |make_list[383:1][400:1][513:0]| ( Int  Int  Int) Bool)
(declare-fun |make_list[380:1][411:1][498:0]| ( Int  Int  Int) Bool)
(declare-fun |risers[415:1][494:0]| ( Int  Int) Bool)
(declare-fun |risers[415:1][428:1][480:0]| ( Int  Int  Int) Bool)
(declare-fun |make_list[380:1][411:1][432:1][476:0]| ( Int  Int  Int  Int) Bool)
(declare-fun |make_list[383:1][400:1][447:1][462:0]| ( Int  Int  Int  Int) Bool)
(declare-fun |make_list[383:1][400:1][447:0]| ( Int  Int  Int) Bool)
(declare-fun |make_list[380:1][411:1][432:0]| ( Int  Int  Int) Bool)
(declare-fun |risers[415:1][428:0]| ( Int  Int) Bool)
(declare-fun |risers[415:0]| ( Int) Bool)
(declare-fun |make_list[380:1][411:0]| ( Int  Int) Bool)
(declare-fun |make_list[383:1][400:0]| ( Int  Int) Bool)
(declare-fun |make_list[386:1][389:0]| ( Int  Int) Bool)
(declare-fun |make_list[386:0]| ( Int) Bool)
(declare-fun |make_list[383:0]| ( Int) Bool)
(declare-fun |make_list[380:0]| ( Int) Bool)
(assert (not (exists ((x0 Int)) (|fail_97[824:0]| x0))))
(assert (forall ((x0 Int)(x3 Int)(x1 Int)(var2122 Int)(x2 Int)(var2123 Int)) (=> (and (|risers[561:2][817:0]| var2122 x3) (and (|risers[415:1][428:1][480:0]| x1 1 var2123) (and (|risers[415:1][494:1][546:0]| x1 0 x2) (and (|risers[415:0]| x1) (and (<= x3 0) (and (= x1 (+ 1 var2122)) (and (>= x1 2) (>= x2 var2123)))))))) (|fail_97[824:0]| x0))))
(assert (forall ((x1 Int)(x2 Int)(var2126 Int)(var2128 Int)(var2127 Int)(var2125 Int)(var2124 Int)) (=> (and (|risers[711:2][744:1][760:1][779:0]| var2125 var2126 0 var2124) (and (|risers[711:2][744:0]| var2125 var2126) (and (|risers[561:1][574:1][671:0]| x1 1 var2127) (and (|risers[561:1][685:1][696:0]| x1 0 var2128) (and (|risers[561:0]| x1) (and (= (+ 1 var2126) x2) (and (<= 1 var2126) (and (>= var2128 var2127) (and (= x1 (+ 1 var2125)) (>= x1 2)))))))))) (|risers[561:2][817:0]| x1 x2))))
(assert (forall ((x3 Int)(x4 Int)(x1 Int)(x2 Int)(var2130 Int)) (=> (and (|risers[711:1][719:1][730:0]| x3 0 var2130) (and (|risers[711:2][744:0]| x3 x4) (and (|risers[711:2][744:1][760:0]| x3 1 x1) (and (|risers[711:0]| x3) (and (= x3 1) (and (= x4 1) (and (= x1 0) (= x2 1)))))))) (|risers[711:2][744:1][760:1][779:0]| x3 x4 x1 x2))))
(assert (forall ((x6 Int)(x4 Int)(x5 Int)(x3 Int)(x1 Int)(x2 Int)) (=> (and (|risers[711:0]| x6) (and (|risers[711:2][744:0]| x6 x4) (and (|risers[561:1][574:1][671:0]| x3 1 x2) (and (|risers[561:1][685:1][696:0]| x3 0 x1) (and (|risers[561:0]| x3) (and (= x5 0) (and (= x3 (+ 1 x6)) (and (>= x3 2) (and (<= 1 x4) (>= x1 x2)))))))))) (|risers[711:2][744:1][760:0]| x6 x4 x5))))
(assert (forall ((x1 Int)(x2 Int)(var2131 Int)) (=> (and (|risers[711:1][719:1][730:0]| x1 0 var2131) (and (|risers[711:0]| x1) (and (= x1 1) (= x2 1)))) (|risers[711:2][744:0]| x1 x2))))
(assert (forall ((x6 Int)(x4 Int)(x5 Int)(x3 Int)(var2132 Int)(x1 Int)) (=> (and (|risers[711:0]| x6) (and (|risers[711:1][719:0]| var2132 x4) (and (|risers[561:1][574:1][671:0]| x3 1 x5) (and (|risers[561:1][685:1][696:0]| x3 0 x1) (and (|risers[561:0]| x3) (and (= x4 0) (and (= x3 (+ 1 x6)) (and (= x3 (+ 1 var2132)) (and (>= x3 2) (>= x1 x5)))))))))) (|risers[711:1][719:1][730:0]| x6 x4 x5))))
(assert (forall ((x1 Int)(x2 Int)) (=> (and (|risers[711:0]| x1) (and (= x1 1) (= x2 0))) (|risers[711:1][719:0]| x1 x2))))
(assert (forall ((x4 Int)(x3 Int)(x1 Int)(x2 Int)) (=> (and (|risers[561:1][574:1][671:0]| x3 1 x2) (and (|risers[561:1][685:1][696:0]| x3 0 x1) (and (|risers[561:0]| x3) (and (= x3 (+ 1 x4)) (and (>= x3 2) (>= x1 x2)))))) (|risers[711:0]| x4))))
(assert (forall ((x6 Int)(x4 Int)(x5 Int)(x3 Int)(var2133 Int)(x1 Int)) (=> (and (|risers[561:0]| x6) (and (|risers[561:1][685:0]| var2133 x4) (and (|risers[415:1][428:1][480:0]| x3 1 x5) (and (|risers[415:1][494:1][546:0]| x3 0 x1) (and (|risers[415:0]| x3) (and (= x4 0) (and (= x3 (+ 1 x6)) (and (= x3 (+ 1 var2133)) (and (>= x3 2) (>= x1 x5)))))))))) (|risers[561:1][685:1][696:0]| x6 x4 x5))))
(assert (forall ((x1 Int)(x2 Int)(var2134 Int)) (=> (and (|risers[561:1][574:1][671:0]| x1 1 var2134) (and (|risers[561:0]| x1) (and (= x2 0) (>= x1 2)))) (|risers[561:1][685:0]| x1 x2))))
(assert (forall ((x6 Int)(x4 Int)(x5 Int)(x3 Int)(x1 Int)(x2 Int)(var2136 Int)(var2135 Int)) (=> (and (|risers[561:0]| x6) (and (|risers[415:1][597:1][649:0]| x3 var2135 x5) (and (|risers[561:1][574:0]| var2136 x4) (and (|risers[415:1][428:1][480:0]| x3 1 x2) (and (|risers[415:1][494:1][546:0]| x3 0 x1) (and (|risers[415:0]| x3) (and (= x3 (+ 1 x6)) (and (>= x3 2) (and (>= x1 x2) (and (not (= x4 0)) (and (= x3 (+ 1 var2136)) (= (+ 1 x4) var2135)))))))))))) (|risers[561:1][574:1][671:0]| x6 x4 x5))))
(assert (forall ((x3 Int)(x1 Int)(x2 Int)(x0 Int)) (=> (and (|risers[415:0]| x3) (and (|make_list[380:1][411:1][601:1][645:0]| x0 x3 x1 x2) (|make_list[380:1][411:0]| x0 x3))) (|risers[415:1][597:1][649:0]| x3 x1 x2))))
(assert (forall ((x2 Int)(x3 Int)(x0 Int)(x1 Int)(var2139 Int)(var2141 Int)(var2140 Int)(var2142 Int)) (=> (and (|make_list[380:1][411:1][601:0]| x2 var2139 x0) (and (|make_list[383:1][400:0]| var2140 var2141) (and (|make_list[383:1][400:1][616:1][631:0]| var2140 var2141 var2142 x1) (and (|make_list[380:1][411:0]| x2 x3) (and (|make_list[380:0]| x2) (and (= var2139 (+ 1 var2141)) (and (= x3 (+ 1 var2141)) (and (= (+ 1 var2140) x2) (and (= (+ 1 var2142) x0) (and (not (= x0 0)) (>= x2 1))))))))))) (|make_list[380:1][411:1][601:1][645:0]| x2 x3 x0 x1))))
(assert (forall ((x2 Int)(x3 Int)(x0 Int)(x1 Int)(var2145 Int)(var2147 Int)(var2146 Int)) (=> (and (|make_list[383:1][400:1][616:0]| x2 var2145 x0) (and (|make_list[386:1][389:0]| var2146 var2147) (and (|make_list[383:1][400:0]| x2 x3) (and (|make_list[383:0]| x2) (and (= var2145 (+ 1 var2147)) (and (= x3 (+ 1 var2147)) (and (= (+ 1 var2146) x2) (and (= x0 0) (>= x2 1))))))))) (|make_list[383:1][400:1][616:1][631:0]| x2 x3 x0 x1))))
(assert (forall ((x3 Int)(x1 Int)(x2 Int)(x0 Int)(var2149 Int)(var2148 Int)(var2150 Int)) (=> (and (|make_list[383:0]| x3) (and (|make_list[380:1][411:1][601:0]| x0 var2148 var2149) (and (|make_list[383:1][400:0]| var2150 x1) (and (|make_list[380:0]| x0) (and (= (+ 1 x3) x0) (and (= (+ 1 x2) var2149) (and (not (= var2149 0)) (and (= var2148 (+ 1 x1)) (and (= (+ 1 var2150) x0) (>= x0 1)))))))))) (|make_list[383:1][400:1][616:0]| x3 x1 x2))))
(assert (forall ((x2 Int)(x0 Int)(x1 Int)) (=> (and (|make_list[380:0]| x2) (and (|risers[415:1][597:0]| x0 x1) (|make_list[380:1][411:0]| x2 x0))) (|make_list[380:1][411:1][601:0]| x2 x0 x1))))
(assert (forall ((x1 Int)(x2 Int)(var2152 Int)(var2154 Int)(var2153 Int)(var2151 Int)) (=> (and (|risers[561:1][574:0]| var2151 var2152) (and (|risers[415:1][428:1][480:0]| x1 1 var2153) (and (|risers[415:1][494:1][546:0]| x1 0 var2154) (and (|risers[415:0]| x1) (and (= (+ 1 var2152) x2) (and (not (= var2152 0)) (and (>= var2154 var2153) (and (= x1 (+ 1 var2151)) (>= x1 2))))))))) (|risers[415:1][597:0]| x1 x2))))
(assert (forall ((x1 Int)(x2 Int)) (=> (and (|risers[561:0]| x1) (and (= x2 1) (>= x1 2))) (|risers[561:1][574:0]| x1 x2))))
(assert (forall ((x4 Int)(x3 Int)(x1 Int)(x2 Int)) (=> (and (|risers[415:1][428:1][480:0]| x3 1 x2) (and (|risers[415:1][494:1][546:0]| x3 0 x1) (and (|risers[415:0]| x3) (and (= x3 (+ 1 x4)) (and (>= x3 2) (>= x1 x2)))))) (|risers[561:0]| x4))))
(assert (forall ((x3 Int)(x1 Int)(x2 Int)(x0 Int)) (=> (and (|risers[415:0]| x3) (and (|make_list[380:1][411:1][498:1][542:0]| x0 x3 x1 x2) (|make_list[380:1][411:0]| x0 x3))) (|risers[415:1][494:1][546:0]| x3 x1 x2))))
(assert (forall ((x2 Int)(x3 Int)(x0 Int)(x1 Int)(var2157 Int)(var2159 Int)(var2158 Int)(var2160 Int)) (=> (and (|make_list[380:1][411:1][498:0]| x2 var2157 x0) (and (|make_list[383:1][400:0]| var2158 var2159) (and (|make_list[383:1][400:1][513:1][528:0]| var2158 var2159 var2160 x1) (and (|make_list[380:1][411:0]| x2 x3) (and (|make_list[380:0]| x2) (and (= var2157 (+ 1 var2159)) (and (= x3 (+ 1 var2159)) (and (= (+ 1 var2158) x2) (and (= (+ 1 var2160) x0) (and (not (= x0 0)) (>= x2 1))))))))))) (|make_list[380:1][411:1][498:1][542:0]| x2 x3 x0 x1))))
(assert (forall ((x2 Int)(x3 Int)(x0 Int)(x1 Int)(var2163 Int)(var2165 Int)(var2164 Int)) (=> (and (|make_list[383:1][400:1][513:0]| x2 var2163 x0) (and (|make_list[386:1][389:0]| var2164 var2165) (and (|make_list[383:1][400:0]| x2 x3) (and (|make_list[383:0]| x2) (and (= var2163 (+ 1 var2165)) (and (= x3 (+ 1 var2165)) (and (= (+ 1 var2164) x2) (and (= x0 0) (>= x2 1))))))))) (|make_list[383:1][400:1][513:1][528:0]| x2 x3 x0 x1))))
(assert (forall ((x3 Int)(x1 Int)(x2 Int)(x0 Int)(var2167 Int)(var2166 Int)(var2168 Int)) (=> (and (|make_list[383:0]| x3) (and (|make_list[380:1][411:1][498:0]| x0 var2166 var2167) (and (|make_list[383:1][400:0]| var2168 x1) (and (|make_list[380:0]| x0) (and (= (+ 1 x3) x0) (and (= (+ 1 x2) var2167) (and (not (= var2167 0)) (and (= var2166 (+ 1 x1)) (and (= (+ 1 var2168) x0) (>= x0 1)))))))))) (|make_list[383:1][400:1][513:0]| x3 x1 x2))))
(assert (forall ((x2 Int)(x0 Int)(x1 Int)) (=> (and (|make_list[380:0]| x2) (and (|risers[415:1][494:0]| x0 x1) (|make_list[380:1][411:0]| x2 x0))) (|make_list[380:1][411:1][498:0]| x2 x0 x1))))
(assert (forall ((x1 Int)(x2 Int)(var2169 Int)) (=> (and (|risers[415:1][428:1][480:0]| x1 1 var2169) (and (|risers[415:0]| x1) (and (= x2 0) (>= x1 2)))) (|risers[415:1][494:0]| x1 x2))))
(assert (forall ((x3 Int)(x1 Int)(x2 Int)(x0 Int)) (=> (and (|risers[415:0]| x3) (and (|make_list[380:1][411:1][432:1][476:0]| x0 x3 x1 x2) (|make_list[380:1][411:0]| x0 x3))) (|risers[415:1][428:1][480:0]| x3 x1 x2))))
(assert (forall ((x2 Int)(x3 Int)(x0 Int)(x1 Int)(var2172 Int)(var2174 Int)(var2173 Int)(var2175 Int)) (=> (and (|make_list[380:1][411:1][432:0]| x2 var2172 x0) (and (|make_list[383:1][400:0]| var2173 var2174) (and (|make_list[383:1][400:1][447:1][462:0]| var2173 var2174 var2175 x1) (and (|make_list[380:1][411:0]| x2 x3) (and (|make_list[380:0]| x2) (and (= var2172 (+ 1 var2174)) (and (= x3 (+ 1 var2174)) (and (= (+ 1 var2173) x2) (and (= (+ 1 var2175) x0) (and (not (= x0 0)) (>= x2 1))))))))))) (|make_list[380:1][411:1][432:1][476:0]| x2 x3 x0 x1))))
(assert (forall ((x2 Int)(x3 Int)(x0 Int)(x1 Int)(var2178 Int)(var2180 Int)(var2179 Int)) (=> (and (|make_list[383:1][400:1][447:0]| x2 var2178 x0) (and (|make_list[386:1][389:0]| var2179 var2180) (and (|make_list[383:1][400:0]| x2 x3) (and (|make_list[383:0]| x2) (and (= var2178 (+ 1 var2180)) (and (= x3 (+ 1 var2180)) (and (= (+ 1 var2179) x2) (and (= x0 0) (>= x2 1))))))))) (|make_list[383:1][400:1][447:1][462:0]| x2 x3 x0 x1))))
(assert (forall ((x3 Int)(x1 Int)(x2 Int)(x0 Int)(var2182 Int)(var2181 Int)(var2183 Int)) (=> (and (|make_list[383:0]| x3) (and (|make_list[380:1][411:1][432:0]| x0 var2181 var2182) (and (|make_list[383:1][400:0]| var2183 x1) (and (|make_list[380:0]| x0) (and (= (+ 1 x3) x0) (and (= (+ 1 x2) var2182) (and (not (= var2182 0)) (and (= var2181 (+ 1 x1)) (and (= (+ 1 var2183) x0) (>= x0 1)))))))))) (|make_list[383:1][400:1][447:0]| x3 x1 x2))))
(assert (forall ((x2 Int)(x0 Int)(x1 Int)) (=> (and (|make_list[380:0]| x2) (and (|risers[415:1][428:0]| x0 x1) (|make_list[380:1][411:0]| x2 x0))) (|make_list[380:1][411:1][432:0]| x2 x0 x1))))
(assert (forall ((x1 Int)(x2 Int)) (=> (and (|risers[415:0]| x1) (and (= x2 1) (>= x1 2))) (|risers[415:1][428:0]| x1 x2))))
(assert (forall ((x1 Int)(x0 Int)) (=> (|make_list[380:1][411:0]| x0 x1) (|risers[415:0]| x1))))
(assert (forall ((x0 Int)(x1 Int)(var2184 Int)(var2185 Int)) (=> (and (|make_list[383:1][400:0]| var2184 var2185) (and (|make_list[380:0]| x0) (and (= (+ 1 var2184) x0) (and (= x1 (+ 1 var2185)) (>= x0 1))))) (|make_list[380:1][411:0]| x0 x1))))
(assert (forall ((x0 Int)(x1 Int)(var2186 Int)(var2187 Int)) (=> (and (|make_list[386:1][389:0]| var2186 var2187) (and (|make_list[383:0]| x0) (and (= (+ 1 var2186) x0) (and (= x1 (+ 1 var2187)) (>= x0 1))))) (|make_list[383:1][400:0]| x0 x1))))
(assert (forall ((x1 Int)(x0 Int)) (=> (and (|make_list[386:0]| x1) (and (= x0 0) (<= x1 0))) (|make_list[386:1][389:0]| x1 x0))))
(assert (forall ((x0 Int)(x1 Int)) (=> (and (|make_list[383:0]| x1) (and (= (+ 1 x0) x1) (>= x1 1))) (|make_list[386:0]| x0))))
(assert (forall ((x0 Int)(x1 Int)) (=> (and (|make_list[380:0]| x1) (and (= (+ 1 x0) x1) (>= x1 1))) (|make_list[383:0]| x0))))
(assert (forall ((x0 Int)) (|make_list[380:0]| x0)))
(check-sat)
(get-model)
(exit)
